experiment/data/hgs-res/Vrp-Set-Golden-n301/Vrp-Set-Golden-n301-hgs/0.hgs1.log
=========== Algorithm Parameters =================
---- nbGranular        is set to 20
---- mu                is set to 25
---- lambda            is set to 40
---- nbElite           is set to 4
---- nbClose           is set to 5
---- targetFeasible    is set to 0.2
---- seed              is set to 1234
---- nbIter            is set to 20000
---- timeLimit         is set to 0
---- useSwapStar       is set to 1
==================================================
----- READING INSTANCE: baseline_results/cvrp_hgs/Vrp-Set-Golden-n301/Vrp-Set-Golden-n301-hgs/0.hgs1.vrp
----- FLEET SIZE WAS NOT SPECIFIED: DEFAULT INITIALIZATION TO 39 VEHICLES
----- INSTANCE SUCCESSFULLY LOADED WITH 300 CLIENTS AND 39 VEHICLES
----- BUILDING INITIAL POPULATION
----- STARTING GENETIC ALGORITHM
It      0      2 | T(s) 0.44 | Feas 60 1031.81 1044.60 | NO-INFEASIBLE | Div 0.61 -1.00 | Feas 1.00 1.00 | Pen 1.04 0.85
It    500    136 | T(s) 1.53 | Feas 26 1018.88 1030.35 | Inf 41 1021.16 1025.54 | Div 0.59 0.49 | Feas 0.46 1.00 | Pen 0.46 0.38
It   1000     20 | T(s) 2.76 | Feas 63 1013.07 1019.63 | Inf 31 1013.07 1017.84 | Div 0.50 0.53 | Feas 0.22 1.00 | Pen 0.33 0.17
It   1500     51 | T(s) 3.98 | Feas 45 1008.57 1013.43 | Inf 50 1009.48 1012.53 | Div 0.47 0.49 | Feas 0.26 1.00 | Pen 0.24 0.10
It   2000    260 | T(s) 5.20 | Feas 65 1005.50 1008.55 | Inf 43 1007.11 1010.22 | Div 0.36 0.47 | Feas 0.27 1.00 | Pen 0.25 0.10
It   2500    186 | T(s) 6.32 | Feas 58 1003.24 1005.52 | Inf 63 1004.60 1006.53 | Div 0.30 0.37 | Feas 0.20 1.00 | Pen 0.21 0.10
It   3000    185 | T(s) 7.47 | Feas 34 1001.46 1006.49 | Inf 41 1002.56 1005.36 | Div 0.42 0.40 | Feas 0.26 1.00 | Pen 0.21 0.10
It   3500     93 | T(s) 8.59 | Feas 58 1000.62 1004.66 | Inf 60 1001.99 1003.59 | Div 0.39 0.37 | Feas 0.11 1.00 | Pen 0.22 0.10
It   4000    249 | T(s) 9.66 | Feas 46 1000.34 1001.81 | Inf 46 1000.73 1002.55 | Div 0.33 0.37 | Feas 0.18 1.00 | Pen 0.19 0.10
It   4500     74 | T(s) 10.70 | Feas 65 997.82 1000.48 | Inf 27 999.82 1003.36 | Div 0.26 0.43 | Feas 0.19 1.00 | Pen 0.19 0.10
It   5000    275 | T(s) 11.75 | Feas 38 997.76 999.15 | Inf 47 997.62 999.52 | Div 0.23 0.27 | Feas 0.18 1.00 | Pen 0.14 0.10
It   5500    340 | T(s) 12.76 | Feas 30 996.90 998.59 | Inf 37 998.85 1000.85 | Div 0.24 0.34 | Feas 0.20 1.00 | Pen 0.17 0.10
It   6000    840 | T(s) 13.73 | Feas 53 996.90 997.84 | Inf 48 997.14 998.76 | Div 0.20 0.27 | Feas 0.22 1.00 | Pen 0.14 0.10
It   6500    153 | T(s) 14.76 | Feas 65 996.79 997.35 | Inf 49 997.49 1000.03 | Div 0.19 0.27 | Feas 0.13 1.00 | Pen 0.17 0.10
It   7000    202 | T(s) 15.76 | Feas 60 996.53 997.07 | Inf 65 997.23 997.69 | Div 0.18 0.19 | Feas 0.22 1.00 | Pen 0.14 0.10
It   7500     73 | T(s) 16.73 | Feas 38 996.51 997.20 | Inf 50 997.05 997.62 | Div 0.22 0.21 | Feas 0.31 1.00 | Pen 0.15 0.10
It   8000    275 | T(s) 17.81 | Feas 56 996.27 997.57 | Inf 49 999.18 1003.24 | Div 0.26 0.37 | Feas 0.09 1.00 | Pen 0.15 0.10
It   8500    450 | T(s) 18.83 | Feas 45 996.21 996.91 | Inf 39 997.34 999.47 | Div 0.22 0.32 | Feas 0.17 1.00 | Pen 0.15 0.10
It   9000    344 | T(s) 19.84 | Feas 57 996.04 996.42 | Inf 34 996.64 997.78 | Div 0.17 0.26 | Feas 0.20 1.00 | Pen 0.15 0.10
It   9500    844 | T(s) 20.89 | Feas 55 996.04 996.42 | Inf 59 997.12 999.23 | Div 0.17 0.25 | Feas 0.22 1.00 | Pen 0.15 0.10
It  10000   1344 | T(s) 21.94 | Feas 48 996.04 996.78 | Inf 40 996.82 1000.87 | Div 0.21 0.36 | Feas 0.24 1.00 | Pen 0.16 0.10
It  10500    160 | T(s) 22.98 | Feas 47 995.98 996.98 | Inf 64 996.85 1001.08 | Div 0.21 0.31 | Feas 0.15 1.00 | Pen 0.16 0.10
It  11000    660 | T(s) 23.95 | Feas 44 995.98 996.26 | Inf 31 996.42 998.86 | Div 0.15 0.31 | Feas 0.31 1.00 | Pen 0.14 0.10
It  11500   1160 | T(s) 25.03 | Feas 29 995.98 996.65 | Inf 26 997.05 1000.18 | Div 0.22 0.39 | Feas 0.17 1.00 | Pen 0.14 0.10
It  12000    149 | T(s) 26.08 | Feas 40 995.97 996.30 | Inf 54 996.44 997.83 | Div 0.18 0.26 | Feas 0.24 1.00 | Pen 0.15 0.10
It  12500     55 | T(s) 27.17 | Feas 58 995.90 996.12 | Inf 37 996.84 1001.62 | Div 0.13 0.37 | Feas 0.15 1.00 | Pen 0.15 0.10
It  13000    555 | T(s) 28.17 | Feas 46 995.90 996.24 | Inf 53 993.13 995.73 | Div 0.17 0.34 | Feas 0.16 1.00 | Pen 0.13 0.10
It  13500    116 | T(s) 29.28 | Feas 48 995.87 996.25 | Inf 41 994.42 997.72 | Div 0.17 0.37 | Feas 0.19 1.00 | Pen 0.13 0.10
It  14000    616 | T(s) 30.40 | Feas 56 995.87 996.47 | Inf 42 997.07 1000.33 | Div 0.19 0.31 | Feas 0.29 1.00 | Pen 0.16 0.10
It  14500   1116 | T(s) 31.41 | Feas 60 995.87 996.00 | Inf 58 990.63 993.89 | Div 0.12 0.30 | Feas 0.31 1.00 | Pen 0.12 0.10
It  15000     19 | T(s) 32.50 | Feas 26 995.71 998.96 | Inf 44 996.41 997.62 | Div 0.30 0.24 | Feas 0.23 1.00 | Pen 0.15 0.10
It  15500    114 | T(s) 33.45 | Feas 53 995.64 995.89 | Inf 63 990.22 994.81 | Div 0.13 0.28 | Feas 0.23 1.00 | Pen 0.12 0.10
It  16000    299 | T(s) 34.46 | Feas 54 995.62 995.82 | Inf 38 990.96 996.79 | Div 0.11 0.31 | Feas 0.32 1.00 | Pen 0.13 0.10
It  16500    799 | T(s) 35.63 | Feas 37 995.62 995.87 | Inf 32 994.43 999.56 | Div 0.14 0.34 | Feas 0.29 1.00 | Pen 0.13 0.10
It  17000   1299 | T(s) 36.65 | Feas 30 995.62 995.89 | Inf 49 990.81 995.41 | Div 0.14 0.23 | Feas 0.31 1.00 | Pen 0.12 0.10
It  17500   1799 | T(s) 37.68 | Feas 57 995.62 995.76 | Inf 49 995.62 996.84 | Div 0.10 0.24 | Feas 0.16 1.00 | Pen 0.14 0.10
It  18000   2299 | T(s) 38.78 | Feas 28 995.62 996.66 | Inf 37 998.46 1001.17 | Div 0.18 0.33 | Feas 0.12 1.00 | Pen 0.14 0.10
It  18500   2799 | T(s) 39.95 | Feas 58 995.62 995.84 | Inf 34 997.73 1004.94 | Div 0.12 0.42 | Feas 0.06 1.00 | Pen 0.15 0.10
It  19000   3299 | T(s) 40.96 | Feas 52 995.62 995.79 | Inf 29 989.90 996.72 | Div 0.11 0.39 | Feas 0.22 1.00 | Pen 0.13 0.10
It  19500   3799 | T(s) 41.95 | Feas 32 995.62 996.20 | Inf 50 990.91 994.61 | Div 0.19 0.30 | Feas 0.20 1.00 | Pen 0.13 0.10
It  20000   4299 | T(s) 43.03 | Feas 53 995.62 995.81 | Inf 28 986.49 993.49 | Div 0.11 0.41 | Feas 0.28 1.00 | Pen 0.11 0.10
It  20500   4799 | T(s) 44.19 | Feas 52 995.62 995.84 | Inf 34 992.85 995.51 | Div 0.12 0.36 | Feas 0.20 1.00 | Pen 0.13 0.10
It  21000   5299 | T(s) 45.24 | Feas 65 995.62 995.72 | Inf 46 993.11 996.34 | Div 0.09 0.34 | Feas 0.24 1.00 | Pen 0.14 0.10
It  21500   5799 | T(s) 46.37 | Feas 55 995.62 995.73 | Inf 26 994.62 998.25 | Div 0.08 0.40 | Feas 0.25 1.00 | Pen 0.14 0.10
It  22000   6299 | T(s) 47.52 | Feas 26 995.62 996.38 | Inf 56 996.28 997.90 | Div 0.17 0.30 | Feas 0.19 1.00 | Pen 0.14 0.10
It  22500   6799 | T(s) 48.65 | Feas 62 995.62 995.72 | Inf 39 996.95 1000.86 | Div 0.09 0.37 | Feas 0.14 1.00 | Pen 0.14 0.10
It  23000   7299 | T(s) 49.85 | Feas 42 995.62 995.74 | Inf 64 988.05 994.55 | Div 0.09 0.32 | Feas 0.28 1.00 | Pen 0.13 0.10
It  23500   7799 | T(s) 50.97 | Feas 61 995.62 995.74 | Inf 50 991.56 996.33 | Div 0.08 0.25 | Feas 0.26 1.00 | Pen 0.13 0.10
It  24000   8299 | T(s) 52.09 | Feas 37 995.62 995.91 | Inf 33 993.74 997.49 | Div 0.14 0.35 | Feas 0.24 1.00 | Pen 0.13 0.10
It  24500   8799 | T(s) 53.20 | Feas 50 995.62 995.90 | Inf 57 989.78 992.17 | Div 0.14 0.30 | Feas 0.26 1.00 | Pen 0.12 0.10
It  25000   9299 | T(s) 54.38 | Feas 61 995.62 995.76 | Inf 54 990.04 993.10 | Div 0.10 0.33 | Feas 0.17 1.00 | Pen 0.12 0.10
It  25500   9799 | T(s) 55.51 | Feas 47 995.62 995.84 | Inf 39 989.47 993.28 | Div 0.12 0.31 | Feas 0.30 1.00 | Pen 0.12 0.10
It  26000  10299 | T(s) 56.70 | Feas 65 995.62 995.75 | Inf 28 988.34 994.55 | Div 0.09 0.39 | Feas 0.30 1.00 | Pen 0.12 0.10
It  26500  10799 | T(s) 57.91 | Feas 40 995.62 995.82 | Inf 62 989.34 994.30 | Div 0.12 0.34 | Feas 0.19 1.00 | Pen 0.13 0.10
It  27000  11299 | T(s) 59.10 | Feas 58 995.62 995.77 | Inf 50 989.78 992.12 | Div 0.10 0.34 | Feas 0.16 1.00 | Pen 0.13 0.10
It  27500  11799 | T(s) 60.33 | Feas 61 995.62 995.73 | Inf 34 991.40 995.73 | Div 0.09 0.30 | Feas 0.31 1.00 | Pen 0.13 0.10
It  28000  12299 | T(s) 61.52 | Feas 59 995.62 995.72 | Inf 26 993.23 999.84 | Div 0.09 0.42 | Feas 0.18 1.00 | Pen 0.14 0.10
It  28500  12799 | T(s) 62.68 | Feas 44 995.62 995.72 | Inf 50 981.67 989.36 | Div 0.08 0.36 | Feas 0.28 1.00 | Pen 0.12 0.10
It  29000  13299 | T(s) 63.82 | Feas 57 995.62 995.71 | Inf 44 992.07 994.91 | Div 0.08 0.28 | Feas 0.26 1.00 | Pen 0.12 0.10
It  29500  13799 | T(s) 65.01 | Feas 44 995.62 995.79 | Inf 40 996.26 999.52 | Div 0.11 0.35 | Feas 0.25 1.00 | Pen 0.15 0.10
It  30000  14299 | T(s) 66.16 | Feas 29 995.62 997.04 | Inf 27 996.62 1000.05 | Div 0.17 0.39 | Feas 0.23 1.00 | Pen 0.15 0.10
It  30500  14799 | T(s) 67.25 | Feas 40 995.62 995.79 | Inf 50 989.71 992.58 | Div 0.12 0.31 | Feas 0.17 1.00 | Pen 0.13 0.10
It  31000  15299 | T(s) 68.43 | Feas 25 995.62 995.87 | Inf 38 996.49 999.83 | Div 0.14 0.29 | Feas 0.35 1.00 | Pen 0.16 0.10
It  31500  15799 | T(s) 69.50 | Feas 45 995.62 995.76 | Inf 47 993.71 996.57 | Div 0.09 0.24 | Feas 0.34 1.00 | Pen 0.13 0.10
It  32000  16299 | T(s) 70.68 | Feas 53 995.62 995.73 | Inf 47 994.49 996.63 | Div 0.09 0.34 | Feas 0.19 1.00 | Pen 0.14 0.10
It  32500  16799 | T(s) 71.84 | Feas 50 995.62 995.73 | Inf 25 995.60 1002.31 | Div 0.08 0.41 | Feas 0.20 1.00 | Pen 0.14 0.10
It  33000  17299 | T(s) 72.99 | Feas 41 995.62 995.77 | Inf 41 987.79 991.23 | Div 0.11 0.37 | Feas 0.21 1.00 | Pen 0.12 0.10
It  33500  17799 | T(s) 74.26 | Feas 64 995.62 995.69 | Inf 44 996.55 998.20 | Div 0.07 0.26 | Feas 0.23 1.00 | Pen 0.15 0.10
It  34000  18299 | T(s) 75.47 | Feas 45 995.62 995.80 | Inf 36 997.83 1000.13 | Div 0.11 0.33 | Feas 0.15 1.00 | Pen 0.15 0.10
It  34500  18799 | T(s) 76.65 | Feas 34 995.62 995.87 | Inf 62 996.85 998.35 | Div 0.12 0.24 | Feas 0.23 1.00 | Pen 0.15 0.10
It  35000  19299 | T(s) 77.78 | Feas 63 995.62 995.70 | Inf 40 992.08 994.97 | Div 0.07 0.31 | Feas 0.29 1.00 | Pen 0.13 0.10
It  35500  19799 | T(s) 78.97 | Feas 61 995.62 995.68 | Inf 26 991.85 996.67 | Div 0.06 0.40 | Feas 0.22 1.00 | Pen 0.13 0.10
----- GENETIC ALGORITHM FINISHED AFTER 35703 ITERATIONS. TIME SPENT: 79.4221
----- WRITING BEST SOLUTION IN : baseline_results/cvrp_hgs/Vrp-Set-Golden-n301/Vrp-Set-Golden-n301-hgs/0.hgs1.tour
