experiment/data/hgs-res/Vrp-Set-Golden-n301/Vrp-Set-Golden-n301-hgs/0.hgs1.tour
Route #1: 37 97 42 43 102 157 124 64 4 30
Route #2: 44 10 104 163 222 277 244 184 217 162
Route #3: 49 109 70 169 130 224 283 282 223 164 103
Route #4: 168 228 229 190 284 250 289 288 287 278 227
Route #5: 38 5 98 47 107 158 125 65 105 50 45
Route #6: 48 108 167 218 185 245 285 230 225 170 165 110
Route #7: 111 171 231 290 291 232 131 172 71 112
Route #8: 176 236 295 296 297 251 292 191 237 177 117
Route #9: 6 66 166 115 116 57 11 52 51
Route #10: 46 55 106 126 186 233 178 173 118 59 58 113 53
Route #11: 56 175 226 235 286 246 293 238 179 120 12 60
Route #12: 17 77 72 137 132 240 299 298 239 180 119
Route #13: 195 294 255 256 257 252 300 192 197 196 136
Route #14: 54 1 114 15 75 174 121 61 73 18 13
Route #15: 78 133 138 193 198 253 241 181 234 135 76 16
Route #16: 83 143 144 145 127 200 259 258 199 140 139 79
Route #17: 19 20 7 80 67 85 84 25 24 23 74
Route #18: 204 205 187 260 247 265 264 263 254 203 194 134
Route #19: 14 2 62 122 141 86 27 26 81 21
Route #20: 146 201 182 242 261 206 147 88 8 28
Route #21: 33 93 68 153 128 208 267 266 207 148 87
Route #22: 152 212 213 188 268 248 273 272 271 262 211
Route #23: 29 34 89 63 123 142 91 31 82 3 22
Route #24: 32 92 151 202 183 243 269 214 209 154 149 94
Route #25: 99 159 160 161 129 216 275 274 215 156 155 95
Route #26: 35 36 9 96 69 101 100 41 40 39 90
Route #27: 220 221 189 276 249 281 280 279 270 219 210 150
Cost 995.616
